
;this file is automatically generated: Mon May 21 14:03:36 IST 2018

;declarations generated

(declare-fun S0 () Int)
(declare-fun S1 () Int)

;formula(s) generated
(assert (and (>= S0 0) (<= S0 1)))
(assert (and (>= S1 0) (<= S1 1)))
(assert (= S0 0))
(assert (or (and (= S1 0) (not (= S1 1) )) (and (not (= S1 0) ) (= S1 1))))

 ;end of formula 
(assert (not (and (= S0 0) (= S1 0)) ))

(assert (not (and (= S0 0) (= S1 1)) ))
